param set_len = 48;
param target_sum = 11298970581;
param values := [1] 491980621 [2] 203339438 [3] 347901788 [4] 321906521 [5] 255549867 [6] 658615478 [7] 595080346 [8] 402488619 [9] 494021701 [10] 446071302 [11] 818920210 [12] 1065906257 [13] 1024711991 [14] 899417242 [15] 819453673 [16] 994149338 [17] 779533096 [18] 341770720 [19] 3730931 [20] 697554443 [21] 711721921 [22] 719114796 [23] 699005564 [24] 383956052 [25] 699457350 [26] 319248772 [27] 745706163 [28] 146093778 [29] 6173524 [30] 836409090 [31] 126700642 [32] 311064796 [33] 562564843 [34] 318074385 [35] 188093391 [36] 563630110 [37] 16094861 [38] 439035463 [39] 596399160 [40] 298211185 [41] 324525205 [42] 437877842 [43] 397428523 [44] 56755190 [45] 446828834 [46] 1050202544 [47] 496662898 [48] 830189864 ;
